\ Model RRP
\ LP format - for model browsing. Use MPS format to capture full model detail.
Maximize
  0 x_kimjn[0,1,17,1,17] + 0 x_kimjn[0,1,17,1,0] + 0 x_kimjn[0,1,0,1,17]
   + 0 x_kimjn[0,1,0,1,0] + 0 x_kimjn[0,2,1,2,1] + 0 x_kimjn[0,2,1,2,2]
   + 0 x_kimjn[0,2,1,2,9] + 0 x_kimjn[0,2,1,2,12] + 0 x_kimjn[0,2,1,2,10]
   + 0 x_kimjn[0,2,1,2,5] + 0 x_kimjn[0,2,1,2,6] + 0 x_kimjn[0,2,1,2,7]
   + 0 x_kimjn[0,2,1,2,8] + 0 x_kimjn[0,2,1,2,13] + 0 x_kimjn[0,2,1,2,0]
   + 0 x_kimjn[0,2,2,2,1] + 0 x_kimjn[0,2,2,2,2] + 0 x_kimjn[0,2,2,2,9]
   + 0 x_kimjn[0,2,2,2,12] + 0 x_kimjn[0,2,2,2,10] + 0 x_kimjn[0,2,2,2,5]
   + 0 x_kimjn[0,2,2,2,6] + 0 x_kimjn[0,2,2,2,7] + 0 x_kimjn[0,2,2,2,8]
   + 0 x_kimjn[0,2,2,2,13] + 0 x_kimjn[0,2,2,2,0] + 0 x_kimjn[0,2,9,2,1]
   + 0 x_kimjn[0,2,9,2,2] + 0 x_kimjn[0,2,9,2,9] + 0 x_kimjn[0,2,9,2,12]
   + 0 x_kimjn[0,2,9,2,10] + 0 x_kimjn[0,2,9,2,5] + 0 x_kimjn[0,2,9,2,6]
   + 0 x_kimjn[0,2,9,2,7] + 0 x_kimjn[0,2,9,2,8] + 0 x_kimjn[0,2,9,2,13]
   + 0 x_kimjn[0,2,9,2,0] + 0 x_kimjn[0,2,12,2,1] + 0 x_kimjn[0,2,12,2,2]
   + 0 x_kimjn[0,2,12,2,9] + 0 x_kimjn[0,2,12,2,12]
   + 0 x_kimjn[0,2,12,2,10] + 0 x_kimjn[0,2,12,2,5] + 0 x_kimjn[0,2,12,2,6]
   + 0 x_kimjn[0,2,12,2,7] + 0 x_kimjn[0,2,12,2,8] + 0 x_kimjn[0,2,12,2,13]
   + 0 x_kimjn[0,2,12,2,0] + 0 x_kimjn[0,2,10,2,1] + 0 x_kimjn[0,2,10,2,2]
   + 0 x_kimjn[0,2,10,2,9] + 0 x_kimjn[0,2,10,2,12]
   + 0 x_kimjn[0,2,10,2,10] + 0 x_kimjn[0,2,10,2,5] + 0 x_kimjn[0,2,10,2,6]
   + 0 x_kimjn[0,2,10,2,7] + 0 x_kimjn[0,2,10,2,8] + 0 x_kimjn[0,2,10,2,13]
   + 0 x_kimjn[0,2,10,2,0] + 0 x_kimjn[0,2,5,2,1] + 0 x_kimjn[0,2,5,2,2]
   + 0 x_kimjn[0,2,5,2,9] + 0 x_kimjn[0,2,5,2,12] + 0 x_kimjn[0,2,5,2,10]
   + 0 x_kimjn[0,2,5,2,5] + 0 x_kimjn[0,2,5,2,6] + 0 x_kimjn[0,2,5,2,7]
   + 0 x_kimjn[0,2,5,2,8] + 0 x_kimjn[0,2,5,2,13] + 0 x_kimjn[0,2,5,2,0]
   + 0 x_kimjn[0,2,6,2,1] + 0 x_kimjn[0,2,6,2,2] + 0 x_kimjn[0,2,6,2,9]
   + 0 x_kimjn[0,2,6,2,12] + 0 x_kimjn[0,2,6,2,10] + 0 x_kimjn[0,2,6,2,5]
   + 0 x_kimjn[0,2,6,2,6] + 0 x_kimjn[0,2,6,2,7] + 0 x_kimjn[0,2,6,2,8]
   + 0 x_kimjn[0,2,6,2,13] + 0 x_kimjn[0,2,6,2,0] + 0 x_kimjn[0,2,7,2,1]
   + 0 x_kimjn[0,2,7,2,2] + 0 x_kimjn[0,2,7,2,9] + 0 x_kimjn[0,2,7,2,12]
   + 0 x_kimjn[0,2,7,2,10] + 0 x_kimjn[0,2,7,2,5] + 0 x_kimjn[0,2,7,2,6]
   + 0 x_kimjn[0,2,7,2,7] + 0 x_kimjn[0,2,7,2,8] + 0 x_kimjn[0,2,7,2,13]
   + 0 x_kimjn[0,2,7,2,0] + 0 x_kimjn[0,2,8,2,1] + 0 x_kimjn[0,2,8,2,2]
   + 0 x_kimjn[0,2,8,2,9] + 0 x_kimjn[0,2,8,2,12] + 0 x_kimjn[0,2,8,2,10]
   + 0 x_kimjn[0,2,8,2,5] + 0 x_kimjn[0,2,8,2,6] + 0 x_kimjn[0,2,8,2,7]
   + 0 x_kimjn[0,2,8,2,8] + 0 x_kimjn[0,2,8,2,13] + 0 x_kimjn[0,2,8,2,0]
   + 0 x_kimjn[0,2,13,2,1] + 0 x_kimjn[0,2,13,2,2] + 0 x_kimjn[0,2,13,2,9]
   + 0 x_kimjn[0,2,13,2,12] + 0 x_kimjn[0,2,13,2,10]
   + 0 x_kimjn[0,2,13,2,5] + 0 x_kimjn[0,2,13,2,6] + 0 x_kimjn[0,2,13,2,7]
   + 0 x_kimjn[0,2,13,2,8] + 0 x_kimjn[0,2,13,2,13] + 0 x_kimjn[0,2,13,2,0]
   + 0 x_kimjn[0,2,0,2,1] + 0 x_kimjn[0,2,0,2,2] + 0 x_kimjn[0,2,0,2,9]
   + 0 x_kimjn[0,2,0,2,12] + 0 x_kimjn[0,2,0,2,10] + 0 x_kimjn[0,2,0,2,5]
   + 0 x_kimjn[0,2,0,2,6] + 0 x_kimjn[0,2,0,2,7] + 0 x_kimjn[0,2,0,2,8]
   + 0 x_kimjn[0,2,0,2,13] + 0 x_kimjn[0,2,0,2,0] + 0 x_kimjn[0,3,0,1,17]
   + 0 x_kimjn[0,3,0,1,0] + 0 x_kimjn[0,3,0,2,1] + 0 x_kimjn[0,3,0,2,2]
   + 0 x_kimjn[0,3,0,2,9] + 0 x_kimjn[0,3,0,2,12] + 0 x_kimjn[0,3,0,2,10]
   + 0 x_kimjn[0,3,0,2,5] + 0 x_kimjn[0,3,0,2,6] + 0 x_kimjn[0,3,0,2,7]
   + 0 x_kimjn[0,3,0,2,8] + 0 x_kimjn[0,3,0,2,13] + 0 x_kimjn[0,3,0,2,0]
   + 0 x_kimjn[0,3,0,3,0] + 0 x_kimjn[0,4,0,1,17] + 0 x_kimjn[0,4,0,1,0]
   + 0 x_kimjn[0,4,0,2,1] + 0 x_kimjn[0,4,0,2,2] + 0 x_kimjn[0,4,0,2,9]
   + 0 x_kimjn[0,4,0,2,12] + 0 x_kimjn[0,4,0,2,10] + 0 x_kimjn[0,4,0,2,5]
   + 0 x_kimjn[0,4,0,2,6] + 0 x_kimjn[0,4,0,2,7] + 0 x_kimjn[0,4,0,2,8]
   + 0 x_kimjn[0,4,0,2,13] + 0 x_kimjn[0,4,0,2,0] + 0 x_kimjn[0,4,0,4,0]
   + z_ki[0,1] + z_ki[0,2]
Subject To
 R0: xs_kim[0,1,17] + xs_kim[0,1,0] + xs_kim[0,2,1] + xs_kim[0,2,2]
   + xs_kim[0,2,9] + xs_kim[0,2,12] + xs_kim[0,2,10] + xs_kim[0,2,5]
   + xs_kim[0,2,6] + xs_kim[0,2,7] + xs_kim[0,2,8] + xs_kim[0,2,13]
   + xs_kim[0,2,0] + xod_k[0] = 1
 R1: xe_kjn[0,3,0] + xe_kjn[0,4,0] + xod_k[0] = 1
 R2: - x_kimjn[0,1,17,2,1] - x_kimjn[0,1,17,2,2] - x_kimjn[0,1,17,2,9]
   - x_kimjn[0,1,17,2,12] - x_kimjn[0,1,17,2,10] - x_kimjn[0,1,17,2,5]
   - x_kimjn[0,1,17,2,6] - x_kimjn[0,1,17,2,7] - x_kimjn[0,1,17,2,8]
   - x_kimjn[0,1,17,2,13] - x_kimjn[0,1,17,2,0] - x_kimjn[0,1,17,3,0]
   - x_kimjn[0,1,17,4,0] + x_kimjn[0,2,1,1,17] + x_kimjn[0,2,2,1,17]
   + x_kimjn[0,2,9,1,17] + x_kimjn[0,2,12,1,17] + x_kimjn[0,2,10,1,17]
   + x_kimjn[0,2,5,1,17] + x_kimjn[0,2,6,1,17] + x_kimjn[0,2,7,1,17]
   + x_kimjn[0,2,8,1,17] + x_kimjn[0,2,13,1,17] + x_kimjn[0,2,0,1,17]
   + xs_kim[0,1,17] = 0
 R3: - x_kimjn[0,1,0,2,1] - x_kimjn[0,1,0,2,2] - x_kimjn[0,1,0,2,9]
   - x_kimjn[0,1,0,2,12] - x_kimjn[0,1,0,2,10] - x_kimjn[0,1,0,2,5]
   - x_kimjn[0,1,0,2,6] - x_kimjn[0,1,0,2,7] - x_kimjn[0,1,0,2,8]
   - x_kimjn[0,1,0,2,13] - x_kimjn[0,1,0,2,0] - x_kimjn[0,1,0,3,0]
   - x_kimjn[0,1,0,4,0] + x_kimjn[0,2,1,1,0] + x_kimjn[0,2,2,1,0]
   + x_kimjn[0,2,9,1,0] + x_kimjn[0,2,12,1,0] + x_kimjn[0,2,10,1,0]
   + x_kimjn[0,2,5,1,0] + x_kimjn[0,2,6,1,0] + x_kimjn[0,2,7,1,0]
   + x_kimjn[0,2,8,1,0] + x_kimjn[0,2,13,1,0] + x_kimjn[0,2,0,1,0]
   + xs_kim[0,1,0] = 0
 R4: x_kimjn[0,1,17,2,1] + x_kimjn[0,1,0,2,1] - x_kimjn[0,2,1,1,17]
   - x_kimjn[0,2,1,1,0] - x_kimjn[0,2,1,3,0] - x_kimjn[0,2,1,4,0]
   + xs_kim[0,2,1] = 0
 R5: x_kimjn[0,1,17,2,2] + x_kimjn[0,1,0,2,2] - x_kimjn[0,2,2,1,17]
   - x_kimjn[0,2,2,1,0] - x_kimjn[0,2,2,3,0] - x_kimjn[0,2,2,4,0]
   + xs_kim[0,2,2] = 0
 R6: x_kimjn[0,1,17,2,9] + x_kimjn[0,1,0,2,9] - x_kimjn[0,2,9,1,17]
   - x_kimjn[0,2,9,1,0] - x_kimjn[0,2,9,3,0] - x_kimjn[0,2,9,4,0]
   + xs_kim[0,2,9] = 0
 R7: x_kimjn[0,1,17,2,12] + x_kimjn[0,1,0,2,12] - x_kimjn[0,2,12,1,17]
   - x_kimjn[0,2,12,1,0] - x_kimjn[0,2,12,3,0] - x_kimjn[0,2,12,4,0]
   + xs_kim[0,2,12] = 0
 R8: x_kimjn[0,1,17,2,10] + x_kimjn[0,1,0,2,10] - x_kimjn[0,2,10,1,17]
   - x_kimjn[0,2,10,1,0] - x_kimjn[0,2,10,3,0] - x_kimjn[0,2,10,4,0]
   + xs_kim[0,2,10] = 0
 R9: x_kimjn[0,1,17,2,5] + x_kimjn[0,1,0,2,5] - x_kimjn[0,2,5,1,17]
   - x_kimjn[0,2,5,1,0] - x_kimjn[0,2,5,3,0] - x_kimjn[0,2,5,4,0]
   + xs_kim[0,2,5] = 0
 R10: x_kimjn[0,1,17,2,6] + x_kimjn[0,1,0,2,6] - x_kimjn[0,2,6,1,17]
   - x_kimjn[0,2,6,1,0] - x_kimjn[0,2,6,3,0] - x_kimjn[0,2,6,4,0]
   + xs_kim[0,2,6] = 0
 R11: x_kimjn[0,1,17,2,7] + x_kimjn[0,1,0,2,7] - x_kimjn[0,2,7,1,17]
   - x_kimjn[0,2,7,1,0] - x_kimjn[0,2,7,3,0] - x_kimjn[0,2,7,4,0]
   + xs_kim[0,2,7] = 0
 R12: x_kimjn[0,1,17,2,8] + x_kimjn[0,1,0,2,8] - x_kimjn[0,2,8,1,17]
   - x_kimjn[0,2,8,1,0] - x_kimjn[0,2,8,3,0] - x_kimjn[0,2,8,4,0]
   + xs_kim[0,2,8] = 0
 R13: x_kimjn[0,1,17,2,13] + x_kimjn[0,1,0,2,13] - x_kimjn[0,2,13,1,17]
   - x_kimjn[0,2,13,1,0] - x_kimjn[0,2,13,3,0] - x_kimjn[0,2,13,4,0]
   + xs_kim[0,2,13] = 0
 R14: x_kimjn[0,1,17,2,0] + x_kimjn[0,1,0,2,0] - x_kimjn[0,2,0,1,17]
   - x_kimjn[0,2,0,1,0] - x_kimjn[0,2,0,3,0] - x_kimjn[0,2,0,4,0]
   + xs_kim[0,2,0] = 0
 R15: - x_kimjn[0,1,17,3,0] - x_kimjn[0,1,0,3,0] - x_kimjn[0,2,1,3,0]
   - x_kimjn[0,2,2,3,0] - x_kimjn[0,2,9,3,0] - x_kimjn[0,2,12,3,0]
   - x_kimjn[0,2,10,3,0] - x_kimjn[0,2,5,3,0] - x_kimjn[0,2,6,3,0]
   - x_kimjn[0,2,7,3,0] - x_kimjn[0,2,8,3,0] - x_kimjn[0,2,13,3,0]
   - x_kimjn[0,2,0,3,0] + x_kimjn[0,3,0,4,0] - x_kimjn[0,4,0,3,0]
   + xe_kjn[0,3,0] = 0
 R16: - x_kimjn[0,1,17,4,0] - x_kimjn[0,1,0,4,0] - x_kimjn[0,2,1,4,0]
   - x_kimjn[0,2,2,4,0] - x_kimjn[0,2,9,4,0] - x_kimjn[0,2,12,4,0]
   - x_kimjn[0,2,10,4,0] - x_kimjn[0,2,5,4,0] - x_kimjn[0,2,6,4,0]
   - x_kimjn[0,2,7,4,0] - x_kimjn[0,2,8,4,0] - x_kimjn[0,2,13,4,0]
   - x_kimjn[0,2,0,4,0] - x_kimjn[0,3,0,4,0] + x_kimjn[0,4,0,3,0]
   + xe_kjn[0,4,0] = 0
 R17: x_kimjn[0,2,1,1,17] + x_kimjn[0,2,2,1,17] + x_kimjn[0,2,9,1,17]
   + x_kimjn[0,2,12,1,17] + x_kimjn[0,2,10,1,17] + x_kimjn[0,2,5,1,17]
   + x_kimjn[0,2,6,1,17] + x_kimjn[0,2,7,1,17] + x_kimjn[0,2,8,1,17]
   + x_kimjn[0,2,13,1,17] + x_kimjn[0,2,0,1,17] + xs_kim[0,1,17]
   - y_kim[0,1,17] = 0
 R18: x_kimjn[0,2,1,1,0] + x_kimjn[0,2,2,1,0] + x_kimjn[0,2,9,1,0]
   + x_kimjn[0,2,12,1,0] + x_kimjn[0,2,10,1,0] + x_kimjn[0,2,5,1,0]
   + x_kimjn[0,2,6,1,0] + x_kimjn[0,2,7,1,0] + x_kimjn[0,2,8,1,0]
   + x_kimjn[0,2,13,1,0] + x_kimjn[0,2,0,1,0] + xs_kim[0,1,0]
   - y_kim[0,1,0] = 0
 R19: x_kimjn[0,1,17,2,1] + x_kimjn[0,1,0,2,1] + xs_kim[0,2,1]
   - y_kim[0,2,1] = 0
 R20: x_kimjn[0,1,17,2,2] + x_kimjn[0,1,0,2,2] + xs_kim[0,2,2]
   - y_kim[0,2,2] = 0
 R21: x_kimjn[0,1,17,2,9] + x_kimjn[0,1,0,2,9] + xs_kim[0,2,9]
   - y_kim[0,2,9] = 0
 R22: x_kimjn[0,1,17,2,12] + x_kimjn[0,1,0,2,12] + xs_kim[0,2,12]
   - y_kim[0,2,12] = 0
 R23: x_kimjn[0,1,17,2,10] + x_kimjn[0,1,0,2,10] + xs_kim[0,2,10]
   - y_kim[0,2,10] = 0
 R24: x_kimjn[0,1,17,2,5] + x_kimjn[0,1,0,2,5] + xs_kim[0,2,5]
   - y_kim[0,2,5] = 0
 R25: x_kimjn[0,1,17,2,6] + x_kimjn[0,1,0,2,6] + xs_kim[0,2,6]
   - y_kim[0,2,6] = 0
 R26: x_kimjn[0,1,17,2,7] + x_kimjn[0,1,0,2,7] + xs_kim[0,2,7]
   - y_kim[0,2,7] = 0
 R27: x_kimjn[0,1,17,2,8] + x_kimjn[0,1,0,2,8] + xs_kim[0,2,8]
   - y_kim[0,2,8] = 0
 R28: x_kimjn[0,1,17,2,13] + x_kimjn[0,1,0,2,13] + xs_kim[0,2,13]
   - y_kim[0,2,13] = 0
 R29: x_kimjn[0,1,17,2,0] + x_kimjn[0,1,0,2,0] + xs_kim[0,2,0]
   - y_kim[0,2,0] = 0
 R30: x_kimjn[0,3,0,4,0] + xe_kjn[0,3,0] - y_kim[0,3,0] = 0
 R31: x_kimjn[0,4,0,3,0] + xe_kjn[0,4,0] - y_kim[0,4,0] = 0
 R32: y_kim[0,1,17] + 2 y_kim[0,1,0] <= 1
 R33: y_kim[0,2,1] + y_kim[0,2,2] + y_kim[0,2,9] + y_kim[0,2,12]
   + y_kim[0,2,10] + y_kim[0,2,5] + y_kim[0,2,6] + y_kim[0,2,7]
   + y_kim[0,2,8] + y_kim[0,2,13] + 2 y_kim[0,2,0] <= 1
 R34: 2 y_kim[0,3,0] <= 1
 R35: 2 y_kim[0,4,0] <= 1
 R36: x_kimjn[0,2,1,1,17] + x_kimjn[0,2,2,1,17] + x_kimjn[0,2,9,1,17]
   + x_kimjn[0,2,12,1,17] + x_kimjn[0,2,10,1,17] + x_kimjn[0,2,5,1,17]
   + x_kimjn[0,2,6,1,17] + x_kimjn[0,2,7,1,17] + x_kimjn[0,2,8,1,17]
   + x_kimjn[0,2,13,1,17] + x_kimjn[0,2,0,1,17] + xs_kim[0,1,17]
   - z_ki[0,1] = 0
 R37: x_kimjn[0,1,17,2,1] + x_kimjn[0,1,17,2,2] + x_kimjn[0,1,17,2,9]
   + x_kimjn[0,1,17,2,12] + x_kimjn[0,1,17,2,10] + x_kimjn[0,1,17,2,5]
   + x_kimjn[0,1,17,2,6] + x_kimjn[0,1,17,2,7] + x_kimjn[0,1,17,2,8]
   + x_kimjn[0,1,17,2,13] + x_kimjn[0,1,0,2,1] + x_kimjn[0,1,0,2,2]
   + x_kimjn[0,1,0,2,9] + x_kimjn[0,1,0,2,12] + x_kimjn[0,1,0,2,10]
   + x_kimjn[0,1,0,2,5] + x_kimjn[0,1,0,2,6] + x_kimjn[0,1,0,2,7]
   + x_kimjn[0,1,0,2,8] + x_kimjn[0,1,0,2,13] + xs_kim[0,2,1]
   + xs_kim[0,2,2] + xs_kim[0,2,9] + xs_kim[0,2,12] + xs_kim[0,2,10]
   + xs_kim[0,2,5] + xs_kim[0,2,6] + xs_kim[0,2,7] + xs_kim[0,2,8]
   + xs_kim[0,2,13] - z_ki[0,2] = 0
 R38: xod_k[0] = 0
 R39: x_kimjn[0,1,17,2,1] + x_kimjn[0,1,17,2,2] + x_kimjn[0,1,17,2,9]
   + x_kimjn[0,1,17,2,12] + x_kimjn[0,1,17,2,10] + x_kimjn[0,1,17,2,5]
   + x_kimjn[0,1,17,2,6] + x_kimjn[0,1,17,2,7] + x_kimjn[0,1,17,2,8]
   + x_kimjn[0,1,17,2,13] + x_kimjn[0,1,17,2,0] + 2 x_kimjn[0,1,17,3,0]
   + x_kimjn[0,1,17,4,0] + x_kimjn[0,1,0,3,0] + x_kimjn[0,2,1,3,0]
   + x_kimjn[0,2,2,3,0] + x_kimjn[0,2,9,3,0] + x_kimjn[0,2,12,3,0]
   + x_kimjn[0,2,10,3,0] + x_kimjn[0,2,5,3,0] + x_kimjn[0,2,6,3,0]
   + x_kimjn[0,2,7,3,0] + x_kimjn[0,2,8,3,0] + x_kimjn[0,2,13,3,0]
   + x_kimjn[0,2,0,3,0] + x_kimjn[0,4,0,3,0] = 0
 R40: x_kimjn[0,1,17,4,0] + x_kimjn[0,1,0,4,0] + x_kimjn[0,2,1,1,17]
   + x_kimjn[0,2,1,1,0] + x_kimjn[0,2,1,3,0] + 2 x_kimjn[0,2,1,4,0]
   + x_kimjn[0,2,2,1,17] + x_kimjn[0,2,2,1,0] + x_kimjn[0,2,2,3,0]
   + 2 x_kimjn[0,2,2,4,0] + x_kimjn[0,2,9,1,17] + x_kimjn[0,2,9,1,0]
   + x_kimjn[0,2,9,3,0] + 2 x_kimjn[0,2,9,4,0] + x_kimjn[0,2,12,1,17]
   + x_kimjn[0,2,12,1,0] + x_kimjn[0,2,12,3,0] + 2 x_kimjn[0,2,12,4,0]
   + x_kimjn[0,2,10,1,17] + x_kimjn[0,2,10,1,0] + x_kimjn[0,2,10,3,0]
   + 2 x_kimjn[0,2,10,4,0] + x_kimjn[0,2,5,1,17] + x_kimjn[0,2,5,1,0]
   + x_kimjn[0,2,5,3,0] + 2 x_kimjn[0,2,5,4,0] + x_kimjn[0,2,6,1,17]
   + x_kimjn[0,2,6,1,0] + x_kimjn[0,2,6,3,0] + 2 x_kimjn[0,2,6,4,0]
   + x_kimjn[0,2,7,1,17] + x_kimjn[0,2,7,1,0] + x_kimjn[0,2,7,3,0]
   + 2 x_kimjn[0,2,7,4,0] + x_kimjn[0,2,8,1,17] + x_kimjn[0,2,8,1,0]
   + x_kimjn[0,2,8,3,0] + 2 x_kimjn[0,2,8,4,0] + x_kimjn[0,2,13,1,17]
   + x_kimjn[0,2,13,1,0] + x_kimjn[0,2,13,3,0] + 2 x_kimjn[0,2,13,4,0]
   + x_kimjn[0,2,0,4,0] + x_kimjn[0,3,0,4,0] = 0
 R41: t_ki[0,1,17] - t_ki[0,3,0] <= -44
 R42: t_ki[0,1,17] - t_ki[0,3,0] <= -44
 R43: t_ki[0,1,0] - t_ki[0,3,0] <= -50
 R44: t_ki[0,1,0] - t_ki[0,3,0] <= -50
 R45: t_ki[0,2,1] - t_ki[0,4,0] <= -27
 R46: t_ki[0,2,1] - t_ki[0,4,0] <= -27
 R47: t_ki[0,2,2] - t_ki[0,4,0] <= -25
 R48: t_ki[0,2,2] - t_ki[0,4,0] <= -25
 R49: t_ki[0,2,9] - t_ki[0,4,0] <= -22
 R50: t_ki[0,2,9] - t_ki[0,4,0] <= -22
 R51: t_ki[0,2,12] - t_ki[0,4,0] <= -18
 R52: t_ki[0,2,12] - t_ki[0,4,0] <= -18
 R53: t_ki[0,2,10] - t_ki[0,4,0] <= -29
 R54: t_ki[0,2,10] - t_ki[0,4,0] <= -29
 R55: t_ki[0,2,5] - t_ki[0,4,0] <= -26
 R56: t_ki[0,2,5] - t_ki[0,4,0] <= -26
 R57: t_ki[0,2,6] - t_ki[0,4,0] <= -23
 R58: t_ki[0,2,6] - t_ki[0,4,0] <= -23
 R59: t_ki[0,2,7] - t_ki[0,4,0] <= -22
 R60: t_ki[0,2,7] - t_ki[0,4,0] <= -22
 R61: t_ki[0,2,8] - t_ki[0,4,0] <= -26
 R62: t_ki[0,2,8] - t_ki[0,4,0] <= -26
 R63: t_ki[0,2,13] - t_ki[0,4,0] <= -21
 R64: t_ki[0,2,13] - t_ki[0,4,0] <= -21
 R65: t_ki[0,2,0] - t_ki[0,4,0] <= -22
 R66: t_ki[0,2,0] - t_ki[0,4,0] <= -22
 R67: 172.5 x_kimjn[0,1,17,2,1] + t_ki[0,1,17] - t_ki[0,2,1] <= 155.5
 R68: 172.5 x_kimjn[0,1,17,2,2] + t_ki[0,1,17] - t_ki[0,2,2] <= 150.5
 R69: 172.5 x_kimjn[0,1,17,2,9] + t_ki[0,1,17] - t_ki[0,2,9] <= 147.5
 R70: 172.5 x_kimjn[0,1,17,2,12] + t_ki[0,1,17] - t_ki[0,2,12] <= 146.5
 R71: 172.5 x_kimjn[0,1,17,2,10] + t_ki[0,1,17] - t_ki[0,2,10] <= 157.5
 R72: 172.5 x_kimjn[0,1,17,2,5] + t_ki[0,1,17] - t_ki[0,2,5] <= 143.5
 R73: 172.5 x_kimjn[0,1,17,2,6] + t_ki[0,1,17] - t_ki[0,2,6] <= 143.5
 R74: 172.5 x_kimjn[0,1,17,2,7] + t_ki[0,1,17] - t_ki[0,2,7] <= 143.5
 R75: 172.5 x_kimjn[0,1,17,2,8] + t_ki[0,1,17] - t_ki[0,2,8] <= 141.5
 R76: 172.5 x_kimjn[0,1,17,2,13] + t_ki[0,1,17] - t_ki[0,2,13] <= 143.5
 R77: 172.5 x_kimjn[0,1,17,2,0] + t_ki[0,1,17] - t_ki[0,2,0] <= 148.5
 R78: 172.5 x_kimjn[0,1,17,3,0] + t_ki[0,1,17] - t_ki[0,3,0] <= 128.5
 R79: 172.5 x_kimjn[0,1,17,4,0] + t_ki[0,1,17] - t_ki[0,4,0] <= 128.5
 R80: 172.5 x_kimjn[0,1,0,2,1] + t_ki[0,1,0] - t_ki[0,2,1] <= 149.5
 R81: 172.5 x_kimjn[0,1,0,2,2] + t_ki[0,1,0] - t_ki[0,2,2] <= 144.5
 R82: 172.5 x_kimjn[0,1,0,2,9] + t_ki[0,1,0] - t_ki[0,2,9] <= 140.5
 R83: 172.5 x_kimjn[0,1,0,2,12] + t_ki[0,1,0] - t_ki[0,2,12] <= 140.5
 R84: 172.5 x_kimjn[0,1,0,2,10] + t_ki[0,1,0] - t_ki[0,2,10] <= 150.5
 R85: 172.5 x_kimjn[0,1,0,2,5] + t_ki[0,1,0] - t_ki[0,2,5] <= 136.5
 R86: 172.5 x_kimjn[0,1,0,2,6] + t_ki[0,1,0] - t_ki[0,2,6] <= 137.5
 R87: 172.5 x_kimjn[0,1,0,2,7] + t_ki[0,1,0] - t_ki[0,2,7] <= 137.5
 R88: 172.5 x_kimjn[0,1,0,2,8] + t_ki[0,1,0] - t_ki[0,2,8] <= 134.5
 R89: 172.5 x_kimjn[0,1,0,2,13] + t_ki[0,1,0] - t_ki[0,2,13] <= 137.5
 R90: 172.5 x_kimjn[0,1,0,2,0] + t_ki[0,1,0] - t_ki[0,2,0] <= 142.5
 R91: 172.5 x_kimjn[0,1,0,3,0] + t_ki[0,1,0] - t_ki[0,3,0] <= 122.5
 R92: 172.5 x_kimjn[0,1,0,4,0] + t_ki[0,1,0] - t_ki[0,4,0] <= 122.5
 R93: 172.5 x_kimjn[0,2,1,1,17] - t_ki[0,1,17] + t_ki[0,2,1] <= 155.5
 R94: 172.5 x_kimjn[0,2,1,1,0] - t_ki[0,1,0] + t_ki[0,2,1] <= 150.5
 R95: 172.5 x_kimjn[0,2,1,3,0] + t_ki[0,2,1] - t_ki[0,3,0] <= 145.5
 R96: 172.5 x_kimjn[0,2,1,4,0] + t_ki[0,2,1] - t_ki[0,4,0] <= 145.5
 R97: 172.5 x_kimjn[0,2,2,1,17] - t_ki[0,1,17] + t_ki[0,2,2] <= 150.5
 R98: 172.5 x_kimjn[0,2,2,1,0] - t_ki[0,1,0] + t_ki[0,2,2] <= 145.5
 R99: 172.5 x_kimjn[0,2,2,3,0] + t_ki[0,2,2] - t_ki[0,3,0] <= 147.5
 R100: 172.5 x_kimjn[0,2,2,4,0] + t_ki[0,2,2] - t_ki[0,4,0] <= 147.5
 R101: 172.5 x_kimjn[0,2,9,1,17] - t_ki[0,1,17] + t_ki[0,2,9] <= 147.5
 R102: 172.5 x_kimjn[0,2,9,1,0] - t_ki[0,1,0] + t_ki[0,2,9] <= 142.5
 R103: 172.5 x_kimjn[0,2,9,3,0] + t_ki[0,2,9] - t_ki[0,3,0] <= 150.5
 R104: 172.5 x_kimjn[0,2,9,4,0] + t_ki[0,2,9] - t_ki[0,4,0] <= 150.5
 R105: 172.5 x_kimjn[0,2,12,1,17] - t_ki[0,1,17] + t_ki[0,2,12] <= 146.5
 R106: 172.5 x_kimjn[0,2,12,1,0] - t_ki[0,1,0] + t_ki[0,2,12] <= 141.5
 R107: 172.5 x_kimjn[0,2,12,3,0] + t_ki[0,2,12] - t_ki[0,3,0] <= 154.5
 R108: 172.5 x_kimjn[0,2,12,4,0] + t_ki[0,2,12] - t_ki[0,4,0] <= 154.5
 R109: 172.5 x_kimjn[0,2,10,1,17] - t_ki[0,1,17] + t_ki[0,2,10] <= 157.5
 R110: 172.5 x_kimjn[0,2,10,1,0] - t_ki[0,1,0] + t_ki[0,2,10] <= 151.5
 R111: 172.5 x_kimjn[0,2,10,3,0] + t_ki[0,2,10] - t_ki[0,3,0] <= 143.5
 R112: 172.5 x_kimjn[0,2,10,4,0] + t_ki[0,2,10] - t_ki[0,4,0] <= 143.5
 R113: 172.5 x_kimjn[0,2,5,1,17] - t_ki[0,1,17] + t_ki[0,2,5] <= 144.5
 R114: 172.5 x_kimjn[0,2,5,1,0] - t_ki[0,1,0] + t_ki[0,2,5] <= 138.5
 R115: 172.5 x_kimjn[0,2,5,3,0] + t_ki[0,2,5] - t_ki[0,3,0] <= 146.5
 R116: 172.5 x_kimjn[0,2,5,4,0] + t_ki[0,2,5] - t_ki[0,4,0] <= 146.5
 R117: 172.5 x_kimjn[0,2,6,1,17] - t_ki[0,1,17] + t_ki[0,2,6] <= 143.5
 R118: 172.5 x_kimjn[0,2,6,1,0] - t_ki[0,1,0] + t_ki[0,2,6] <= 138.5
 R119: 172.5 x_kimjn[0,2,6,3,0] + t_ki[0,2,6] - t_ki[0,3,0] <= 149.5
 R120: 172.5 x_kimjn[0,2,6,4,0] + t_ki[0,2,6] - t_ki[0,4,0] <= 149.5
 R121: 172.5 x_kimjn[0,2,7,1,17] - t_ki[0,1,17] + t_ki[0,2,7] <= 143.5
 R122: 172.5 x_kimjn[0,2,7,1,0] - t_ki[0,1,0] + t_ki[0,2,7] <= 138.5
 R123: 172.5 x_kimjn[0,2,7,3,0] + t_ki[0,2,7] - t_ki[0,3,0] <= 150.5
 R124: 172.5 x_kimjn[0,2,7,4,0] + t_ki[0,2,7] - t_ki[0,4,0] <= 150.5
 R125: 172.5 x_kimjn[0,2,8,1,17] - t_ki[0,1,17] + t_ki[0,2,8] <= 140.5
 R126: 172.5 x_kimjn[0,2,8,1,0] - t_ki[0,1,0] + t_ki[0,2,8] <= 135.5
 R127: 172.5 x_kimjn[0,2,8,3,0] + t_ki[0,2,8] - t_ki[0,3,0] <= 146.5
 R128: 172.5 x_kimjn[0,2,8,4,0] + t_ki[0,2,8] - t_ki[0,4,0] <= 146.5
 R129: 172.5 x_kimjn[0,2,13,1,17] - t_ki[0,1,17] + t_ki[0,2,13] <= 143.5
 R130: 172.5 x_kimjn[0,2,13,1,0] - t_ki[0,1,0] + t_ki[0,2,13] <= 138.5
 R131: 172.5 x_kimjn[0,2,13,3,0] + t_ki[0,2,13] - t_ki[0,3,0] <= 151.5
 R132: 172.5 x_kimjn[0,2,13,4,0] + t_ki[0,2,13] - t_ki[0,4,0] <= 151.5
 R133: 172.5 x_kimjn[0,2,0,1,17] - t_ki[0,1,17] + t_ki[0,2,0] <= 148.5
 R134: 172.5 x_kimjn[0,2,0,1,0] - t_ki[0,1,0] + t_ki[0,2,0] <= 143.5
 R135: 172.5 x_kimjn[0,2,0,3,0] + t_ki[0,2,0] - t_ki[0,3,0] <= 150.5
 R136: 172.5 x_kimjn[0,2,0,4,0] + t_ki[0,2,0] - t_ki[0,4,0] <= 150.5
 R137: 172.5 x_kimjn[0,3,0,4,0] + t_ki[0,3,0] - t_ki[0,4,0] <= 172.4
 R138: 172.5 x_kimjn[0,4,0,3,0] - t_ki[0,3,0] + t_ki[0,4,0] <= 172.4
 R139: - 172.5 x_kimjn[0,1,17,2,1] + t_ki[0,1,17] - t_ki[0,2,1] >= -189.5
 R140: - 172.5 x_kimjn[0,1,17,2,2] + t_ki[0,1,17] - t_ki[0,2,2] >= -194.5
 R141: - 172.5 x_kimjn[0,1,17,2,9] + t_ki[0,1,17] - t_ki[0,2,9] >= -197.5
 R142: - 172.5 x_kimjn[0,1,17,2,12] + t_ki[0,1,17] - t_ki[0,2,12]
   >= -198.5
 R143: - 172.5 x_kimjn[0,1,17,2,10] + t_ki[0,1,17] - t_ki[0,2,10]
   >= -187.5
 R144: - 172.5 x_kimjn[0,1,17,2,5] + t_ki[0,1,17] - t_ki[0,2,5] >= -201.5
 R145: - 172.5 x_kimjn[0,1,17,2,6] + t_ki[0,1,17] - t_ki[0,2,6] >= -201.5
 R146: - 172.5 x_kimjn[0,1,17,2,7] + t_ki[0,1,17] - t_ki[0,2,7] >= -201.5
 R147: - 172.5 x_kimjn[0,1,17,2,8] + t_ki[0,1,17] - t_ki[0,2,8] >= -203.5
 R148: - 172.5 x_kimjn[0,1,17,2,13] + t_ki[0,1,17] - t_ki[0,2,13]
   >= -201.5
 R149: - 172.5 x_kimjn[0,1,17,2,0] + t_ki[0,1,17] - t_ki[0,2,0] >= -196.5
 R150: - 172.5 x_kimjn[0,1,17,3,0] + t_ki[0,1,17] - t_ki[0,3,0] >= -216.5
 R151: - 172.5 x_kimjn[0,1,17,4,0] + t_ki[0,1,17] - t_ki[0,4,0] >= -216.5
 R152: - 172.5 x_kimjn[0,1,0,2,1] + t_ki[0,1,0] - t_ki[0,2,1] >= -195.5
 R153: - 172.5 x_kimjn[0,1,0,2,2] + t_ki[0,1,0] - t_ki[0,2,2] >= -200.5
 R154: - 172.5 x_kimjn[0,1,0,2,9] + t_ki[0,1,0] - t_ki[0,2,9] >= -204.5
 R155: - 172.5 x_kimjn[0,1,0,2,12] + t_ki[0,1,0] - t_ki[0,2,12] >= -204.5
 R156: - 172.5 x_kimjn[0,1,0,2,10] + t_ki[0,1,0] - t_ki[0,2,10] >= -194.5
 R157: - 172.5 x_kimjn[0,1,0,2,5] + t_ki[0,1,0] - t_ki[0,2,5] >= -208.5
 R158: - 172.5 x_kimjn[0,1,0,2,6] + t_ki[0,1,0] - t_ki[0,2,6] >= -207.5
 R159: - 172.5 x_kimjn[0,1,0,2,7] + t_ki[0,1,0] - t_ki[0,2,7] >= -207.5
 R160: - 172.5 x_kimjn[0,1,0,2,8] + t_ki[0,1,0] - t_ki[0,2,8] >= -210.5
 R161: - 172.5 x_kimjn[0,1,0,2,13] + t_ki[0,1,0] - t_ki[0,2,13] >= -207.5
 R162: - 172.5 x_kimjn[0,1,0,2,0] + t_ki[0,1,0] - t_ki[0,2,0] >= -202.5
 R163: - 172.5 x_kimjn[0,1,0,3,0] + t_ki[0,1,0] - t_ki[0,3,0] >= -222.5
 R164: - 172.5 x_kimjn[0,1,0,4,0] + t_ki[0,1,0] - t_ki[0,4,0] >= -222.5
 R165: - 172.5 x_kimjn[0,2,1,1,17] - t_ki[0,1,17] + t_ki[0,2,1] >= -189.5
 R166: - 172.5 x_kimjn[0,2,1,1,0] - t_ki[0,1,0] + t_ki[0,2,1] >= -194.5
 R167: - 172.5 x_kimjn[0,2,1,3,0] + t_ki[0,2,1] - t_ki[0,3,0] >= -199.5
 R168: - 172.5 x_kimjn[0,2,1,4,0] + t_ki[0,2,1] - t_ki[0,4,0] >= -199.5
 R169: - 172.5 x_kimjn[0,2,2,1,17] - t_ki[0,1,17] + t_ki[0,2,2] >= -194.5
 R170: - 172.5 x_kimjn[0,2,2,1,0] - t_ki[0,1,0] + t_ki[0,2,2] >= -199.5
 R171: - 172.5 x_kimjn[0,2,2,3,0] + t_ki[0,2,2] - t_ki[0,3,0] >= -197.5
 R172: - 172.5 x_kimjn[0,2,2,4,0] + t_ki[0,2,2] - t_ki[0,4,0] >= -197.5
 R173: - 172.5 x_kimjn[0,2,9,1,17] - t_ki[0,1,17] + t_ki[0,2,9] >= -197.5
 R174: - 172.5 x_kimjn[0,2,9,1,0] - t_ki[0,1,0] + t_ki[0,2,9] >= -202.5
 R175: - 172.5 x_kimjn[0,2,9,3,0] + t_ki[0,2,9] - t_ki[0,3,0] >= -194.5
 R176: - 172.5 x_kimjn[0,2,9,4,0] + t_ki[0,2,9] - t_ki[0,4,0] >= -194.5
 R177: - 172.5 x_kimjn[0,2,12,1,17] - t_ki[0,1,17] + t_ki[0,2,12]
   >= -198.5
 R178: - 172.5 x_kimjn[0,2,12,1,0] - t_ki[0,1,0] + t_ki[0,2,12] >= -203.5
 R179: - 172.5 x_kimjn[0,2,12,3,0] + t_ki[0,2,12] - t_ki[0,3,0] >= -190.5
 R180: - 172.5 x_kimjn[0,2,12,4,0] + t_ki[0,2,12] - t_ki[0,4,0] >= -190.5
 R181: - 172.5 x_kimjn[0,2,10,1,17] - t_ki[0,1,17] + t_ki[0,2,10]
   >= -187.5
 R182: - 172.5 x_kimjn[0,2,10,1,0] - t_ki[0,1,0] + t_ki[0,2,10] >= -193.5
 R183: - 172.5 x_kimjn[0,2,10,3,0] + t_ki[0,2,10] - t_ki[0,3,0] >= -201.5
 R184: - 172.5 x_kimjn[0,2,10,4,0] + t_ki[0,2,10] - t_ki[0,4,0] >= -201.5
 R185: - 172.5 x_kimjn[0,2,5,1,17] - t_ki[0,1,17] + t_ki[0,2,5] >= -200.5
 R186: - 172.5 x_kimjn[0,2,5,1,0] - t_ki[0,1,0] + t_ki[0,2,5] >= -206.5
 R187: - 172.5 x_kimjn[0,2,5,3,0] + t_ki[0,2,5] - t_ki[0,3,0] >= -198.5
 R188: - 172.5 x_kimjn[0,2,5,4,0] + t_ki[0,2,5] - t_ki[0,4,0] >= -198.5
 R189: - 172.5 x_kimjn[0,2,6,1,17] - t_ki[0,1,17] + t_ki[0,2,6] >= -201.5
 R190: - 172.5 x_kimjn[0,2,6,1,0] - t_ki[0,1,0] + t_ki[0,2,6] >= -206.5
 R191: - 172.5 x_kimjn[0,2,6,3,0] + t_ki[0,2,6] - t_ki[0,3,0] >= -195.5
 R192: - 172.5 x_kimjn[0,2,6,4,0] + t_ki[0,2,6] - t_ki[0,4,0] >= -195.5
 R193: - 172.5 x_kimjn[0,2,7,1,17] - t_ki[0,1,17] + t_ki[0,2,7] >= -201.5
 R194: - 172.5 x_kimjn[0,2,7,1,0] - t_ki[0,1,0] + t_ki[0,2,7] >= -206.5
 R195: - 172.5 x_kimjn[0,2,7,3,0] + t_ki[0,2,7] - t_ki[0,3,0] >= -194.5
 R196: - 172.5 x_kimjn[0,2,7,4,0] + t_ki[0,2,7] - t_ki[0,4,0] >= -194.5
 R197: - 172.5 x_kimjn[0,2,8,1,17] - t_ki[0,1,17] + t_ki[0,2,8] >= -204.5
 R198: - 172.5 x_kimjn[0,2,8,1,0] - t_ki[0,1,0] + t_ki[0,2,8] >= -209.5
 R199: - 172.5 x_kimjn[0,2,8,3,0] + t_ki[0,2,8] - t_ki[0,3,0] >= -198.5
 R200: - 172.5 x_kimjn[0,2,8,4,0] + t_ki[0,2,8] - t_ki[0,4,0] >= -198.5
 R201: - 172.5 x_kimjn[0,2,13,1,17] - t_ki[0,1,17] + t_ki[0,2,13]
   >= -201.5
 R202: - 172.5 x_kimjn[0,2,13,1,0] - t_ki[0,1,0] + t_ki[0,2,13] >= -206.5
 R203: - 172.5 x_kimjn[0,2,13,3,0] + t_ki[0,2,13] - t_ki[0,3,0] >= -193.5
 R204: - 172.5 x_kimjn[0,2,13,4,0] + t_ki[0,2,13] - t_ki[0,4,0] >= -193.5
 R205: - 172.5 x_kimjn[0,2,0,1,17] - t_ki[0,1,17] + t_ki[0,2,0] >= -196.5
 R206: - 172.5 x_kimjn[0,2,0,1,0] - t_ki[0,1,0] + t_ki[0,2,0] >= -201.5
 R207: - 172.5 x_kimjn[0,2,0,3,0] + t_ki[0,2,0] - t_ki[0,3,0] >= -194.5
 R208: - 172.5 x_kimjn[0,2,0,4,0] + t_ki[0,2,0] - t_ki[0,4,0] >= -194.5
 R209: - 172.5 x_kimjn[0,3,0,4,0] + t_ki[0,3,0] - t_ki[0,4,0] >= -172.6
 R210: - 172.5 x_kimjn[0,4,0,3,0] - t_ki[0,3,0] + t_ki[0,4,0] >= -172.6
 R211: 172.5 xs_kim[0,1,17] + t_ki[0,0,0] - t_ki[0,1,17] <= 148.5
 R212: 172.5 xs_kim[0,1,0] + t_ki[0,0,0] - t_ki[0,1,0] <= 143.5
 R213: 172.5 xs_kim[0,2,1] + t_ki[0,0,0] - t_ki[0,2,1] <= 164.5
 R214: 172.5 xs_kim[0,2,2] + t_ki[0,0,0] - t_ki[0,2,2] <= 167.5
 R215: 172.5 xs_kim[0,2,9] + t_ki[0,0,0] - t_ki[0,2,9] <= 168.5
 R216: 172.5 xs_kim[0,2,12] + t_ki[0,0,0] - t_ki[0,2,12] <= 168.5
 R217: 172.5 xs_kim[0,2,10] + t_ki[0,0,0] - t_ki[0,2,10] <= 163.5
 R218: 172.5 xs_kim[0,2,5] + t_ki[0,0,0] - t_ki[0,2,5] <= 164.5
 R219: 172.5 xs_kim[0,2,6] + t_ki[0,0,0] - t_ki[0,2,6] <= 165.5
 R220: 172.5 xs_kim[0,2,7] + t_ki[0,0,0] - t_ki[0,2,7] <= 165.5
 R221: 172.5 xs_kim[0,2,8] + t_ki[0,0,0] - t_ki[0,2,8] <= 162.5
 R222: 172.5 xs_kim[0,2,13] + t_ki[0,0,0] - t_ki[0,2,13] <= 165.5
 R223: 172.5 xs_kim[0,2,0] + t_ki[0,0,0] - t_ki[0,2,0] <= 172.4
 R224: - 172.5 xs_kim[0,1,17] + t_ki[0,0,0] - t_ki[0,1,17] >= -196.5
 R225: - 172.5 xs_kim[0,1,0] + t_ki[0,0,0] - t_ki[0,1,0] >= -201.5
 R226: - 172.5 xs_kim[0,2,1] + t_ki[0,0,0] - t_ki[0,2,1] >= -180.5
 R227: - 172.5 xs_kim[0,2,2] + t_ki[0,0,0] - t_ki[0,2,2] >= -177.5
 R228: - 172.5 xs_kim[0,2,9] + t_ki[0,0,0] - t_ki[0,2,9] >= -176.5
 R229: - 172.5 xs_kim[0,2,12] + t_ki[0,0,0] - t_ki[0,2,12] >= -176.5
 R230: - 172.5 xs_kim[0,2,10] + t_ki[0,0,0] - t_ki[0,2,10] >= -181.5
 R231: - 172.5 xs_kim[0,2,5] + t_ki[0,0,0] - t_ki[0,2,5] >= -180.5
 R232: - 172.5 xs_kim[0,2,6] + t_ki[0,0,0] - t_ki[0,2,6] >= -179.5
 R233: - 172.5 xs_kim[0,2,7] + t_ki[0,0,0] - t_ki[0,2,7] >= -179.5
 R234: - 172.5 xs_kim[0,2,8] + t_ki[0,0,0] - t_ki[0,2,8] >= -182.5
 R235: - 172.5 xs_kim[0,2,13] + t_ki[0,0,0] - t_ki[0,2,13] >= -179.5
 R236: - 172.5 xs_kim[0,2,0] + t_ki[0,0,0] - t_ki[0,2,0] >= -172.6
 R237: 172.5 xe_kjn[0,3,0] + t_ki[0,3,0] - t_ki[0,5,0] <= 172.4
 R238: 172.5 xe_kjn[0,4,0] + t_ki[0,4,0] - t_ki[0,5,0] <= 172.4
 R239: - 172.5 xe_kjn[0,3,0] + t_ki[0,3,0] - t_ki[0,5,0] >= -172.6
 R240: - 172.5 xe_kjn[0,4,0] + t_ki[0,4,0] - t_ki[0,5,0] >= -172.6
 R241: t_ki[0,3,0] >= 119.9
 R242: t_ki[0,4,0] >= 119.9
 R243: t_ki[0,3,0] <= 149.9
 R244: t_ki[0,4,0] <= 149.9
 R245: t_ki[0,5,0] >= 120
 R246: t_ki[0,5,0] <= 150
 R247: - t_ki[0,1,0] + t_ki[0,3,0] <= 131.7333333333333
 R248: - t_ki[0,2,0] + t_ki[0,4,0] <= 58.26666666666666
 R249: - t_ki[0,0,0] + t_ki[0,5,0] <= 69
 R250: 7 y_kim[0,1,17] - t_ki[0,1,17] + t_ki[0,1,0] <= 0
 R251: 8 y_kim[0,2,1] - t_ki[0,2,1] + t_ki[0,2,0] <= 0
 R252: 5 y_kim[0,2,2] - t_ki[0,2,2] + t_ki[0,2,0] <= 0
 R253: 4 y_kim[0,2,9] - t_ki[0,2,9] + t_ki[0,2,0] <= 0
 R254: 4 y_kim[0,2,12] - t_ki[0,2,12] + t_ki[0,2,0] <= 0
 R255: 9 y_kim[0,2,10] - t_ki[0,2,10] + t_ki[0,2,0] <= 0
 R256: 8 y_kim[0,2,5] - t_ki[0,2,5] + t_ki[0,2,0] <= 0
 R257: 7 y_kim[0,2,6] - t_ki[0,2,6] + t_ki[0,2,0] <= 0
 R258: 7 y_kim[0,2,7] - t_ki[0,2,7] + t_ki[0,2,0] <= 0
 R259: 10 y_kim[0,2,8] - t_ki[0,2,8] + t_ki[0,2,0] <= 0
 R260: 7 y_kim[0,2,13] - t_ki[0,2,13] + t_ki[0,2,0] <= 0
 R261: - 0.1 y_kim[0,3,0] >= 0
 R262: - 0.1 y_kim[0,4,0] >= 0
 R263: z_ki[0,1] + z_ki[0,2] <= 4
Bounds
Binaries
 x_kimjn[0,1,17,1,17] x_kimjn[0,1,17,1,0] x_kimjn[0,1,17,2,1]
 x_kimjn[0,1,17,2,2] x_kimjn[0,1,17,2,9] x_kimjn[0,1,17,2,12]
 x_kimjn[0,1,17,2,10] x_kimjn[0,1,17,2,5] x_kimjn[0,1,17,2,6]
 x_kimjn[0,1,17,2,7] x_kimjn[0,1,17,2,8] x_kimjn[0,1,17,2,13]
 x_kimjn[0,1,17,2,0] x_kimjn[0,1,17,3,0] x_kimjn[0,1,17,4,0]
 x_kimjn[0,1,0,1,17] x_kimjn[0,1,0,1,0] x_kimjn[0,1,0,2,1]
 x_kimjn[0,1,0,2,2] x_kimjn[0,1,0,2,9] x_kimjn[0,1,0,2,12]
 x_kimjn[0,1,0,2,10] x_kimjn[0,1,0,2,5] x_kimjn[0,1,0,2,6]
 x_kimjn[0,1,0,2,7] x_kimjn[0,1,0,2,8] x_kimjn[0,1,0,2,13]
 x_kimjn[0,1,0,2,0] x_kimjn[0,1,0,3,0] x_kimjn[0,1,0,4,0]
 x_kimjn[0,2,1,1,17] x_kimjn[0,2,1,1,0] x_kimjn[0,2,1,2,1]
 x_kimjn[0,2,1,2,2] x_kimjn[0,2,1,2,9] x_kimjn[0,2,1,2,12]
 x_kimjn[0,2,1,2,10] x_kimjn[0,2,1,2,5] x_kimjn[0,2,1,2,6]
 x_kimjn[0,2,1,2,7] x_kimjn[0,2,1,2,8] x_kimjn[0,2,1,2,13]
 x_kimjn[0,2,1,2,0] x_kimjn[0,2,1,3,0] x_kimjn[0,2,1,4,0]
 x_kimjn[0,2,2,1,17] x_kimjn[0,2,2,1,0] x_kimjn[0,2,2,2,1]
 x_kimjn[0,2,2,2,2] x_kimjn[0,2,2,2,9] x_kimjn[0,2,2,2,12]
 x_kimjn[0,2,2,2,10] x_kimjn[0,2,2,2,5] x_kimjn[0,2,2,2,6]
 x_kimjn[0,2,2,2,7] x_kimjn[0,2,2,2,8] x_kimjn[0,2,2,2,13]
 x_kimjn[0,2,2,2,0] x_kimjn[0,2,2,3,0] x_kimjn[0,2,2,4,0]
 x_kimjn[0,2,9,1,17] x_kimjn[0,2,9,1,0] x_kimjn[0,2,9,2,1]
 x_kimjn[0,2,9,2,2] x_kimjn[0,2,9,2,9] x_kimjn[0,2,9,2,12]
 x_kimjn[0,2,9,2,10] x_kimjn[0,2,9,2,5] x_kimjn[0,2,9,2,6]
 x_kimjn[0,2,9,2,7] x_kimjn[0,2,9,2,8] x_kimjn[0,2,9,2,13]
 x_kimjn[0,2,9,2,0] x_kimjn[0,2,9,3,0] x_kimjn[0,2,9,4,0]
 x_kimjn[0,2,12,1,17] x_kimjn[0,2,12,1,0] x_kimjn[0,2,12,2,1]
 x_kimjn[0,2,12,2,2] x_kimjn[0,2,12,2,9] x_kimjn[0,2,12,2,12]
 x_kimjn[0,2,12,2,10] x_kimjn[0,2,12,2,5] x_kimjn[0,2,12,2,6]
 x_kimjn[0,2,12,2,7] x_kimjn[0,2,12,2,8] x_kimjn[0,2,12,2,13]
 x_kimjn[0,2,12,2,0] x_kimjn[0,2,12,3,0] x_kimjn[0,2,12,4,0]
 x_kimjn[0,2,10,1,17] x_kimjn[0,2,10,1,0] x_kimjn[0,2,10,2,1]
 x_kimjn[0,2,10,2,2] x_kimjn[0,2,10,2,9] x_kimjn[0,2,10,2,12]
 x_kimjn[0,2,10,2,10] x_kimjn[0,2,10,2,5] x_kimjn[0,2,10,2,6]
 x_kimjn[0,2,10,2,7] x_kimjn[0,2,10,2,8] x_kimjn[0,2,10,2,13]
 x_kimjn[0,2,10,2,0] x_kimjn[0,2,10,3,0] x_kimjn[0,2,10,4,0]
 x_kimjn[0,2,5,1,17] x_kimjn[0,2,5,1,0] x_kimjn[0,2,5,2,1]
 x_kimjn[0,2,5,2,2] x_kimjn[0,2,5,2,9] x_kimjn[0,2,5,2,12]
 x_kimjn[0,2,5,2,10] x_kimjn[0,2,5,2,5] x_kimjn[0,2,5,2,6]
 x_kimjn[0,2,5,2,7] x_kimjn[0,2,5,2,8] x_kimjn[0,2,5,2,13]
 x_kimjn[0,2,5,2,0] x_kimjn[0,2,5,3,0] x_kimjn[0,2,5,4,0]
 x_kimjn[0,2,6,1,17] x_kimjn[0,2,6,1,0] x_kimjn[0,2,6,2,1]
 x_kimjn[0,2,6,2,2] x_kimjn[0,2,6,2,9] x_kimjn[0,2,6,2,12]
 x_kimjn[0,2,6,2,10] x_kimjn[0,2,6,2,5] x_kimjn[0,2,6,2,6]
 x_kimjn[0,2,6,2,7] x_kimjn[0,2,6,2,8] x_kimjn[0,2,6,2,13]
 x_kimjn[0,2,6,2,0] x_kimjn[0,2,6,3,0] x_kimjn[0,2,6,4,0]
 x_kimjn[0,2,7,1,17] x_kimjn[0,2,7,1,0] x_kimjn[0,2,7,2,1]
 x_kimjn[0,2,7,2,2] x_kimjn[0,2,7,2,9] x_kimjn[0,2,7,2,12]
 x_kimjn[0,2,7,2,10] x_kimjn[0,2,7,2,5] x_kimjn[0,2,7,2,6]
 x_kimjn[0,2,7,2,7] x_kimjn[0,2,7,2,8] x_kimjn[0,2,7,2,13]
 x_kimjn[0,2,7,2,0] x_kimjn[0,2,7,3,0] x_kimjn[0,2,7,4,0]
 x_kimjn[0,2,8,1,17] x_kimjn[0,2,8,1,0] x_kimjn[0,2,8,2,1]
 x_kimjn[0,2,8,2,2] x_kimjn[0,2,8,2,9] x_kimjn[0,2,8,2,12]
 x_kimjn[0,2,8,2,10] x_kimjn[0,2,8,2,5] x_kimjn[0,2,8,2,6]
 x_kimjn[0,2,8,2,7] x_kimjn[0,2,8,2,8] x_kimjn[0,2,8,2,13]
 x_kimjn[0,2,8,2,0] x_kimjn[0,2,8,3,0] x_kimjn[0,2,8,4,0]
 x_kimjn[0,2,13,1,17] x_kimjn[0,2,13,1,0] x_kimjn[0,2,13,2,1]
 x_kimjn[0,2,13,2,2] x_kimjn[0,2,13,2,9] x_kimjn[0,2,13,2,12]
 x_kimjn[0,2,13,2,10] x_kimjn[0,2,13,2,5] x_kimjn[0,2,13,2,6]
 x_kimjn[0,2,13,2,7] x_kimjn[0,2,13,2,8] x_kimjn[0,2,13,2,13]
 x_kimjn[0,2,13,2,0] x_kimjn[0,2,13,3,0] x_kimjn[0,2,13,4,0]
 x_kimjn[0,2,0,1,17] x_kimjn[0,2,0,1,0] x_kimjn[0,2,0,2,1]
 x_kimjn[0,2,0,2,2] x_kimjn[0,2,0,2,9] x_kimjn[0,2,0,2,12]
 x_kimjn[0,2,0,2,10] x_kimjn[0,2,0,2,5] x_kimjn[0,2,0,2,6]
 x_kimjn[0,2,0,2,7] x_kimjn[0,2,0,2,8] x_kimjn[0,2,0,2,13]
 x_kimjn[0,2,0,2,0] x_kimjn[0,2,0,3,0] x_kimjn[0,2,0,4,0]
 x_kimjn[0,3,0,1,17] x_kimjn[0,3,0,1,0] x_kimjn[0,3,0,2,1]
 x_kimjn[0,3,0,2,2] x_kimjn[0,3,0,2,9] x_kimjn[0,3,0,2,12]
 x_kimjn[0,3,0,2,10] x_kimjn[0,3,0,2,5] x_kimjn[0,3,0,2,6]
 x_kimjn[0,3,0,2,7] x_kimjn[0,3,0,2,8] x_kimjn[0,3,0,2,13]
 x_kimjn[0,3,0,2,0] x_kimjn[0,3,0,3,0] x_kimjn[0,3,0,4,0]
 x_kimjn[0,4,0,1,17] x_kimjn[0,4,0,1,0] x_kimjn[0,4,0,2,1]
 x_kimjn[0,4,0,2,2] x_kimjn[0,4,0,2,9] x_kimjn[0,4,0,2,12]
 x_kimjn[0,4,0,2,10] x_kimjn[0,4,0,2,5] x_kimjn[0,4,0,2,6]
 x_kimjn[0,4,0,2,7] x_kimjn[0,4,0,2,8] x_kimjn[0,4,0,2,13]
 x_kimjn[0,4,0,2,0] x_kimjn[0,4,0,3,0] x_kimjn[0,4,0,4,0] xs_kim[0,1,17]
 xs_kim[0,1,0] xs_kim[0,2,1] xs_kim[0,2,2] xs_kim[0,2,9] xs_kim[0,2,12]
 xs_kim[0,2,10] xs_kim[0,2,5] xs_kim[0,2,6] xs_kim[0,2,7] xs_kim[0,2,8]
 xs_kim[0,2,13] xs_kim[0,2,0] xe_kjn[0,3,0] xe_kjn[0,4,0] xod_k[0]
 y_kim[0,1,17] y_kim[0,1,0] y_kim[0,2,1] y_kim[0,2,2] y_kim[0,2,9]
 y_kim[0,2,12] y_kim[0,2,10] y_kim[0,2,5] y_kim[0,2,6] y_kim[0,2,7]
 y_kim[0,2,8] y_kim[0,2,13] y_kim[0,2,0] y_kim[0,3,0] y_kim[0,4,0]
 z_ki[0,1] z_ki[0,2]
End
